
Gurobi 12.0.2 (win64) logging started Fri Jun  6 14:26:04 2025

Set parameter LogFile to value "C:\Ioana\_uni\honours\slp\algorithm\Main_files\results\others\prox_tubules_new\Task_006_Sample002_irr_gurobi.log"
Gurobi Optimizer version 12.0.2 build v12.0.2rc0 (win64 - Windows 11.0 (26100.2))

CPU model: Intel(R) Core(TM) Ultra 5 125H, instruction set [SSE2|AVX|AVX2]
Thread count: 14 physical cores, 18 logical processors, using up to 18 threads

Non-default parameters:
TimeLimit  2200

Optimize a model with 47658 rows, 34797 columns and 147844 nonzeros
Model fingerprint: 0xfd54b854
Variable types: 17403 continuous, 17394 integer (17394 binary)
Coefficient statistics:
  Matrix range     [1e-04, 8e+04]
  Objective range  [1e-04, 9e-01]
  Bounds range     [1e+00, 1e+03]
  RHS range        [1e+00, 1e+00]
Presolve removed 31250 rows and 21830 columns
Presolve time: 0.32s
Presolved: 16408 rows, 12967 columns, 54602 nonzeros
Variable types: 6421 continuous, 6546 integer (6546 binary)

Root relaxation: objective 5.332597e-03, 6910 iterations, 0.86 seconds (1.52 work units)

    Nodes    |    Current Node    |     Objective Bounds      |     Work
 Expl Unexpl |  Obj  Depth IntInf | Incumbent    BestBd   Gap | It/Node Time

     0     0    0.00533    0   67          -    0.00533      -     -    1s
H    0     0                      10.4908517    0.00533   100%     -    1s
H    0     0                       2.5828445    0.00533   100%     -    1s
H    0     0                       2.5740194    0.00533   100%     -    1s
     0     0    0.13753    0   92    2.57402    0.13753  94.7%     -    2s
H    0     0                       1.8012329    0.13753  92.4%     -    2s
H    0     0                       1.7924079    0.13753  92.3%     -    2s
H    0     0                       1.7598346    0.13753  92.2%     -    2s
H    0     0                       1.7498171    0.13753  92.1%     -    2s
     0     0    0.87719    0   70    1.74982    0.87719  49.9%     -    2s
H    0     0                       1.7424680    0.87719  49.7%     -    4s
H    0     0                       1.7336429    0.87719  49.4%     -    4s
     0     0    1.33213    0   45    1.73364    1.33213  23.2%     -    4s
     0     0    1.33241    0   53    1.73364    1.33241  23.1%     -    4s
     0     0    1.33270    0   51    1.73364    1.33270  23.1%     -    4s
     0     0    1.33619    0   45    1.73364    1.33619  22.9%     -    4s
     0     0    1.33619    0   45    1.73364    1.33619  22.9%     -    4s
     0     0    1.33697    0   45    1.73364    1.33697  22.9%     -    4s
     0     0    1.35727    0   53    1.73364    1.35727  21.7%     -    4s
     0     0    1.36193    0   59    1.73364    1.36193  21.4%     -    5s
     0     0    1.36302    0   55    1.73364    1.36302  21.4%     -    5s
     0     0    1.36302    0   57    1.73364    1.36302  21.4%     -    5s
     0     0    1.36302    0   41    1.73364    1.36302  21.4%     -    6s
     0     0    1.36302    0   58    1.73364    1.36302  21.4%     -    6s
     0     0    1.36302    0   68    1.73364    1.36302  21.4%     -    6s
     0     0    1.36302    0   67    1.73364    1.36302  21.4%     -    6s
     0     0    1.36302    0   88    1.73364    1.36302  21.4%     -    6s
     0     0    1.36302    0   61    1.73364    1.36302  21.4%     -    6s
     0     0    1.36302    0   61    1.73364    1.36302  21.4%     -    6s
     0     0    1.36302    0   67    1.73364    1.36302  21.4%     -    6s
     0     0    1.36302    0   60    1.73364    1.36302  21.4%     -    6s
     0     0    1.36302    0   56    1.73364    1.36302  21.4%     -    6s
     0     0    1.36302    0   52    1.73364    1.36302  21.4%     -    6s
     0     0    1.36302    0   52    1.73364    1.36302  21.4%     -    6s
     0     0    1.37583    0   46    1.73364    1.37583  20.6%     -    7s
     0     0    1.37583    0   41    1.73364    1.37583  20.6%     -    7s
     0     0    1.56415    0   31    1.73364    1.56415  9.78%     -    7s
     0     0    1.59088    0   30    1.73364    1.59088  8.24%     -    7s
     0     0    1.59242    0   29    1.73364    1.59242  8.15%     -    7s
     0     0    1.66305    0   24    1.73364    1.66305  4.07%     -    7s
     0     0    1.66306    0   25    1.73364    1.66306  4.07%     -    7s
     0     0    1.69469    0   34    1.73364    1.69469  2.25%     -    7s
     0     0    1.69469    0   22    1.73364    1.69469  2.25%     -    7s
     0     0    1.69469    0   20    1.73364    1.69469  2.25%     -    7s
     0     0    1.70466    0   14    1.73364    1.70466  1.67%     -    7s
     0     0    1.70466    0   15    1.73364    1.70466  1.67%     -    7s
     0     0    1.71580    0   18    1.73364    1.71580  1.03%     -    7s
     0     0    1.71626    0   18    1.73364    1.71626  1.00%     -    7s
     0     0    1.71897    0   12    1.73364    1.71897  0.85%     -    7s
     0     0    1.72726    0    9    1.73364    1.72726  0.37%     -    7s
     0     0    1.72726    0   14    1.73364    1.72726  0.37%     -    7s
     0     0    1.73014    0   22    1.73364    1.73014  0.20%     -    7s
     0     0    1.73163    0   17    1.73364    1.73163  0.12%     -    7s
     0     0    1.73236    0    6    1.73364    1.73236  0.07%     -    7s
     0     0    1.73236    0    6    1.73364    1.73236  0.07%     -    7s
     0     0          -    0         1.73364    1.73363  0.00%     -    7s

Cutting planes:
  Learned: 3
  Gomory: 4
  Lift-and-project: 2
  Cover: 3
  Implied bound: 3
  MIR: 6
  Flow cover: 14
  Network: 1
  Relax-and-lift: 4

Explored 1 nodes (23402 simplex iterations) in 7.34 seconds (8.10 work units)
Thread count was 18 (of 18 available processors)

Solution count 9: 1.73364 1.74247 1.74982 ... 10.4909

Optimal solution found (tolerance 1.00e-04)
Best objective 1.733642915931e+00, best bound 1.733628238335e+00, gap 0.0008%
